12 48 3 10
12 16 20 6 10 5 18 8 20 5 17 16 1 8 18 8 5 7 19 18 14 9 1 12 3 7 7 13 14 12 4 13 6 15 2 20 4 14 15 2 20 18 17 15 5 2 6 16 
1.12 7.14 3.75 0.61 4.15 5.75 2.23 7.25 3.18 3.21 4.07 7.66 3.53 0.52 2.49 4.16 1.49 4.33 3.4 0.54 3.07 6.52 1.44 4.45 7.04 2.97 2.71 7.22 4.13 5.8 5.85 7.15 0.51 2.81 4.21 7.67 3.58 0.43 0.22 6.15 3.1 3.69 4.19 3.12 2.89 2.01 7.54 7.77 
4.8 5.7 0 2.05 2.86 0.55 3.71 1.62 3.3 2.46 1.8 6.94 6.64 4.11 6.04 0.22 6.11 1.42 7.03 6.39 0.22 7.74 7.98 7.72 5.26 0.1 1.69 2.45 0.61 3.42 3.49 3.45 0.86 7.82 0.01 6.73 5.61 5.94 5.06 4.45 6.14 0.86 4.64 0.04 3.38 0.65 6.67 0.62 
1.18 6.66 1.55 4.04 5.38 0.61 6.36 6.23 1.99 5.22 7.11 2.14 2.51 2.25 3.2 0.14 1.05 3.8 4.12 2.28 4.04 0.82 5.82 4.71 6.3 6.16 7.61 3.94 0.47 3.99 0.06 2.65 6.08 6.28 5.54 4.5 0.41 4.84 2.06 2.65 3.58 1.19 7.92 2.71 6.47 5.74 0.92 3.3 
4 4 4 4 4 4 4 4 4 4 4 4 4 4 4 4 4 4 4 4 4 4 4 4 4 4 4 4 4 4 4 4 4 4 4 4 4 4 4 4 4 4 4 4 4 4 4 4 
5.24 2.22 6.63 3.34 1.52 0.91 0.94 2.85 5.5 4.51 3.09 0.92 0.71 7.95 4.43 2.45 7.82 3.15 5.23 5.46 4.67 0.31 3.05 3.24 0.82 3.38 7.33 2.16 0.19 6.37 2.78 2.61 1.5 6.23 0.26 4 6.01 7.69 0.43 0.37 4.91 3.5 1.8 0.36 1.21 0.12 7.21 2.34 
1.46 7.11 8 0.28 0.14 6.29 6.51 7.74 6.87 4.6 2.61 2.12 0.76 0.92 0.82 4.93 4.73 4.92 5.87 4.23 6.1 6.55 7.9 5.33 0.87 4.1 1.02 0.85 1.18 7.43 4.89 2.13 5.98 6.34 5.83 0.84 4.9 1.63 3.75 5.73 1.13 3.77 0.54 0.39 7.15 2.01 3.19 7.47 
4.95 7.13 7.47 4.88 2.73 3.21 5.31 3.57 1.8 0.37 5.44 1.86 7.08 1.69 4.63 4.16 0.45 6.53 4.36 7.04 7.07 1.45 3.32 4.6 1.07 0.46 0.82 4.7 2.03 2.38 2.28 6.82 5.98 5.83 7.78 0.75 3.55 4.34 3.93 3.03 4.28 6.45 1.2 5.6 1.65 5.68 0.44 6.24 
7.59 3.55 4.27 1.19 1.55 5.33 2.16 4.81 0.21 4.95 0.85 0.51 2.1 6.72 1.82 6.54 6.61 0.67 0.17 2.54 3.75 1.18 3.45 5.33 4.54 6.41 1.94 1.97 5.73 5.52 6.54 0.59 2.75 7.8 6.52 3.19 3.24 1.22 2.63 7.01 2.96 1.39 3.75 1.19 0.74 5.07 5.5 0.6 
7.6 2.34 4.59 6.4 1.67 0.9 1.73 4.34 3.98 1.7 3.62 0.09 6.28 7.99 6.02 5.35 0.9 0.59 5.34 5.4 4.32 5.97 6.07 2.56 4.57 4.89 6.46 2.75 5.59 2.5 5.12 0.25 1.63 3.25 1.63 2.47 4.37 7.1 2.66 1.43 7.47 2.98 4.19 1.05 5.95 0.46 4.63 3.03 
0.76 2.68 4.09 5.53 6.72 4.67 5.41 4.44 3 2.57 0.97 2.26 3.12 2.95 4.86 2.16 3.95 1.39 1.74 1.81 7.83 6.39 7.29 0.49 7.02 2.85 1.42 4.01 3.79 3.59 2.93 7.32 7.37 0.21 4.71 3.64 7.37 2.5 3.77 1.32 6.32 4.21 4.92 1.9 2.12 4.85 4.3 5.14 
2.27 3.68 6.47 2.92 0.98 3.68 1.33 1.29 2.4 7.73 6.82 7.53 6.65 0.52 2.31 3.92 2.41 0.11 4.85 6.43 4.94 6.13 0.09 1.18 2.54 3.66 6.99 2.52 7.32 6.38 5.42 3.31 2.36 3.93 2.89 7.13 7.29 6.27 4.23 4.4 6.57 5.32 5.54 2.35 6.5 5.17 4.01 5.45 
7.77 6.62 1.93 6.56 5.03 6.39 5.02 1.99 3.51 1.13 4.47 1.75 0.77 3.58 5.46 5.66 0.65 3.37 4.04 4.28 7.16 4.84 4.69 5.02 1.14 3.45 7.55 4.67 6.45 6.43 5.62 4.97 6.32 1.8 3.47 5.75 5.87 6.49 6.39 4.86 5.32 6.27 6.11 7.18 0.08 2.99 7.69 6.28 
1 1 1 1 1 1 1 1 1 1 1 1 1 1 1 1 1 1 1 1 1 1 1 1 1 1 1 1 1 1 1 1 1 1 1 1 1 1 1 1 1 1 1 1 1 1 1 1 
1 1 1 1 1 1 1 1 1 1 1 1 1 1 1 1 1 1 1 1 1 1 1 1 1 1 1 1 1 1 1 1 1 1 1 1 1 1 1 1 1 1 1 1 1 1 1 1 
1 1 1 1 1 1 1 1 1 1 1 1 1 1 1 1 1 1 1 1 1 1 1 1 1 1 1 1 1 1 1 1 1 1 1 1 1 1 1 1 1 1 1 1 1 1 1 1 
1 1 1 1 1 1 1 1 1 1 1 1 1 1 1 1 1 1 1 1 1 1 1 1 1 1 1 1 1 1 1 1 1 1 1 1 1 1 1 1 1 1 1 1 1 1 1 1 
1 1 1 1 1 1 1 1 1 1 1 1 1 1 1 1 1 1 1 1 1 1 1 1 1 1 1 1 1 1 1 1 1 1 1 1 1 1 1 1 1 1 1 1 1 1 1 1 
1 1 1 1 1 1 1 1 1 1 1 1 1 1 1 1 1 1 1 1 1 1 1 1 1 1 1 1 1 1 1 1 1 1 1 1 1 1 1 1 1 1 1 1 1 1 1 1 
1 1 1 1 1 1 1 1 1 1 1 1 1 1 1 1 1 1 1 1 1 1 1 1 1 1 1 1 1 1 1 1 1 1 1 1 1 1 1 1 1 1 1 1 1 1 1 1 
1 1 1 1 1 1 1 1 1 1 1 1 1 1 1 1 1 1 1 1 1 1 1 1 1 1 1 1 1 1 1 1 1 1 1 1 1 1 1 1 1 1 1 1 1 1 1 1 
1 1 1 1 1 1 1 1 1 1 1 1 1 1 1 1 1 1 1 1 1 1 1 1 1 1 1 1 1 1 1 1 1 1 1 1 1 1 1 1 1 1 1 1 1 1 1 1 
1 1 1 1 1 1 1 1 1 1 1 1 1 1 1 1 1 1 1 1 1 1 1 1 1 1 1 1 1 1 1 1 1 1 1 1 1 1 1 1 1 1 1 1 1 1 1 1 
1 1 1 1 1 1 1 1 1 1 1 1 1 1 1 1 1 1 1 1 1 1 1 1 1 1 1 1 1 1 1 1 1 1 1 1 1 1 1 1 1 1 1 1 1 1 1 1 
1 1 1 1 1 1 1 1 1 1 1 1 1 1 1 1 1 1 1 1 1 1 1 1 1 1 1 1 1 1 1 1 1 1 1 1 1 1 1 1 1 1 1 1 1 1 1 1 
0.01 0.01 0.01 0.01 0.01 0.01 0.01 0.01 0.01 0.01 0.01 0.01 0.01 0.01 0.01 0.01 0.01 0.01 0.01 0.01 0.01 0.01 0.01 0.01 0.01 0.01 0.01 0.01 0.01 0.01 0.01 0.01 0.01 0.01 0.01 0.01 0.01 0.01 0.01 0.01 0.01 0.01 0.01 0.01 0.01 0.01 0.01 0.01 
0.02 0.02 0.02 0.02 0.02 0.02 0.02 0.02 0.02 0.02 0.02 0.02 0.02 0.02 0.02 0.02 0.02 0.02 0.02 0.02 0.02 0.02 0.02 0.02 0.02 0.02 0.02 0.02 0.02 0.02 0.02 0.02 0.02 0.02 0.02 0.02 0.02 0.02 0.02 0.02 0.02 0.02 0.02 0.02 0.02 0.02 0.02 0.02 
0.03 0.03 0.03 0.03 0.03 0.03 0.03 0.03 0.03 0.03 0.03 0.03 0.03 0.03 0.03 0.03 0.03 0.03 0.03 0.03 0.03 0.03 0.03 0.03 0.03 0.03 0.03 0.03 0.03 0.03 0.03 0.03 0.03 0.03 0.03 0.03 0.03 0.03 0.03 0.03 0.03 0.03 0.03 0.03 0.03 0.03 0.03 0.03 
0.04 0.04 0.04 0.04 0.04 0.04 0.04 0.04 0.04 0.04 0.04 0.04 0.04 0.04 0.04 0.04 0.04 0.04 0.04 0.04 0.04 0.04 0.04 0.04 0.04 0.04 0.04 0.04 0.04 0.04 0.04 0.04 0.04 0.04 0.04 0.04 0.04 0.04 0.04 0.04 0.04 0.04 0.04 0.04 0.04 0.04 0.04 0.04 
0.125 0.125 0.125 0.125 0.125 0.125 0.125 0.125 0.125 0.125 0.125 0.125 0.125 0.125 0.125 0.125 0.125 0.125 0.125 0.125 0.125 0.125 0.125 0.125 0.125 0.125 0.125 0.125 0.125 0.125 0.125 0.125 0.125 0.125 0.125 0.125 0.125 0.125 0.125 0.125 0.125 0.125 0.125 0.125 0.125 0.125 0.125 0.125 
0.25 0.25 0.25 0.25 0.25 0.25 0.25 0.25 0.25 0.25 0.25 0.25 0.25 0.25 0.25 0.25 0.25 0.25 0.25 0.25 0.25 0.25 0.25 0.25 0.25 0.25 0.25 0.25 0.25 0.25 0.25 0.25 0.25 0.25 0.25 0.25 0.25 0.25 0.25 0.25 0.25 0.25 0.25 0.25 0.25 0.25 0.25 0.25 
0.375 0.375 0.375 0.375 0.375 0.375 0.375 0.375 0.375 0.375 0.375 0.375 0.375 0.375 0.375 0.375 0.375 0.375 0.375 0.375 0.375 0.375 0.375 0.375 0.375 0.375 0.375 0.375 0.375 0.375 0.375 0.375 0.375 0.375 0.375 0.375 0.375 0.375 0.375 0.375 0.375 0.375 0.375 0.375 0.375 0.375 0.375 0.375 
0.5 0.5 0.5 0.5 0.5 0.5 0.5 0.5 0.5 0.5 0.5 0.5 0.5 0.5 0.5 0.5 0.5 0.5 0.5 0.5 0.5 0.5 0.5 0.5 0.5 0.5 0.5 0.5 0.5 0.5 0.5 0.5 0.5 0.5 0.5 0.5 0.5 0.5 0.5 0.5 0.5 0.5 0.5 0.5 0.5 0.5 0.5 0.5 
0.625 0.625 0.625 0.625 0.625 0.625 0.625 0.625 0.625 0.625 0.625 0.625 0.625 0.625 0.625 0.625 0.625 0.625 0.625 0.625 0.625 0.625 0.625 0.625 0.625 0.625 0.625 0.625 0.625 0.625 0.625 0.625 0.625 0.625 0.625 0.625 0.625 0.625 0.625 0.625 0.625 0.625 0.625 0.625 0.625 0.625 0.625 0.625 
0.75 0.75 0.75 0.75 0.75 0.75 0.75 0.75 0.75 0.75 0.75 0.75 0.75 0.75 0.75 0.75 0.75 0.75 0.75 0.75 0.75 0.75 0.75 0.75 0.75 0.75 0.75 0.75 0.75 0.75 0.75 0.75 0.75 0.75 0.75 0.75 0.75 0.75 0.75 0.75 0.75 0.75 0.75 0.75 0.75 0.75 0.75 0.75 
0.875 0.875 0.875 0.875 0.875 0.875 0.875 0.875 0.875 0.875 0.875 0.875 0.875 0.875 0.875 0.875 0.875 0.875 0.875 0.875 0.875 0.875 0.875 0.875 0.875 0.875 0.875 0.875 0.875 0.875 0.875 0.875 0.875 0.875 0.875 0.875 0.875 0.875 0.875 0.875 0.875 0.875 0.875 0.875 0.875 0.875 0.875 0.875 
1 1 1 1 1 1 1 1 1 1 1 1 1 1 1 1 1 1 1 1 1 1 1 1 1 1 1 1 1 1 1 1 1 1 1 1 1 1 1 1 1 1 1 1 1 1 1 1 
